550 559 558 557 556 41 40 39 42 43 44 47 48 49 54 52 50 51 84 85 86 87 90 93 92 91 46 45 555 554 553 552 99 98 97 96 95 94 89 88 78 79 80 81 57 82 83 53 55 56 58 59 60 61 63 62 64 76 77 75 74 73 72 71 65 66 67 68 70 69 124 125 126 127 128 129 130 131 132 133 134 135 136 137 138 139 140 141 151 150 149 152 148 147 153 146 142 143 144 145 158 157 159 156 155 154 165 164 166 167 163 160 162 168 169 171 170 172 173 174 175 177 176 540 538 537 539 478 477 479 480 476 475 482 481 483 485 484 536 535 487 534 488 486 493 524 525 492 491 490 529 528 236 235 234 233 530 531 489 532 533 231 230 229 228 232 223 224 222 221 220 218 219 193 192 191 190 226 225 189 227 186 188 187 178 182 179 180 181 183 185 184 194 195 196 197 198 199 200 201 202 204 203 208 207 206 205 209 210 211 212 213 214 215 217 216 246 247 245 244 239 238 237 240 243 242 241 248 249 250 251 252 254 253 255 256 257 300 258 259 260 261 262 263 264 266 265 299 298 267 271 268 270 269 272 273 274 275 290 289 288 276 277 278 279 282 281 280 287 286 285 284 283 334 335 333 336 337 338 339 341 340 332 331 330 291 292 293 294 295 296 297 321 320 319 317 318 306 305 307 304 303 301 302 508 507 506 509 510 511 513 512 527 526 523 521 522 514 515 516 517 520 494 495 518 519 498 502 503 504 505 308 309 310 311 312 313 316 314 315 374 375 376 379 380 378 377 451 501 500 499 452 453 439 440 441 450 449 448 447 446 442 443 444 445 431 381 392 393 391 390 389 388 387 385 386 382 383 384 409 405 408 407 406 404 403 402 401 400 399 398 397 394 395 396 371 372 373 322 323 324 325 326 327 328 329 366 367 370 369 368 365 342 343 344 345 346 364 363 362 361 360 359 358 349 348 347 350 351 352 415 416 414 413 353 354 355 357 356 412 411 410 418 417 419 420 421 422 423 424 425 426 427 428 429 430 432 433 434 435 436 437 438 454 455 456 457 458 459 460 461 462 463 497 496 464 465 470 471 472 473 474 469 468 467 466 571 572 573 0 1 2 3 4 5 6 7 8 17 18 9 10 11 16 15 14 13 12 23 22 31 36 37 38 35 34 33 32 30 29 28 27 26 25 24 21 20 19 570 569 568 567 566 565 563 562 561 560 564 549 548 545 546 547 544 543 541 542 107 108 109 110 111 112 161 113 114 115 116 117 123 122 121 120 119 118 106 105 104 103 102 100 101 551